100
100
100
100
98
97
95
94
92
92
92
91
90
89
89
88
88
88
87
85
84
83
81
79
79
77
77
76
72
70
70
69
69
68
64
63
62
62
61
61
60
59
59
58
57
55
52
52
51
47
47
46
43
43
42
37
36
35
35
35
35
34
32
32
31
31
29
29
28
28
25
23
22
22
21
19
17
16
15
14
12
11
11
11
11
11
11
10
8
8
7
6
5
5
4
4
3
3
2
2
1
1
